units lj
dimension 3
boundary p p p
atom_style atomic

lattice fcc 0.01
region simbox block 0 20 0 20 0 20
create_box 1 simbox

mass 1 1.0
pair_style lj/cut 3.0
pair_coeff 1 1 1.0 1.0 3.0

create_atoms 1 box

write_data data/fcc.data
