units lj
dimension 3
boundary p p p
atom_style atomic

pair_style lj/cut 3.0
timestep 0.005

read_data data/uniformvelocity.data
fix 1 all nve

dump 1 all custom 10 data/simulation.in.bin id type x y z vx vy vz
thermo_style custom step time temp ke pe etotal cpuremain spcpu
thermo 100

run 5000
