package omp 4
suffix omp
units lj
dimension 3
boundary p p p
atom_style atomic

variable T equal 1.0

lattice fcc 0.1
region simbox block 0 20 0 20 0 20
create_box 1 simbox

mass 1 1.0
pair_style lj/cut 3.0
pair_coeff 1 1 1.0 1.0 3.0

create_atoms 1 box
velocity all create ${T} 87287
fix 1 all nvt temp ${T} ${T} 1.0

thermo_style custom step time press temp ke pe etotal
thermo 10
log data/log.T_nosehoover

run 10000
